certificates/rado_a30_c26_N159.cnf
c Rad2 upper bound instance: x1 + 30*x2 - x3 = 26, interval [1,159]
p cnf 159 960
1 5 0
-1 -5 0
1 2 35 0
-1 -2 -35 0
1 3 65 0
-1 -3 -65 0
1 4 95 0
-1 -4 -95 0
1 5 125 0
-1 -5 -125 0
1 6 155 0
-1 -6 -155 0
1 2 6 0
-1 -2 -6 0
2 36 0
-2 -36 0
2 3 66 0
-2 -3 -66 0
2 4 96 0
-2 -4 -96 0
2 5 126 0
-2 -5 -126 0
2 6 156 0
-2 -6 -156 0
1 3 7 0
-1 -3 -7 0
2 3 37 0
-2 -3 -37 0
3 67 0
-3 -67 0
3 4 97 0
-3 -4 -97 0
3 5 127 0
-3 -5 -127 0
3 6 157 0
-3 -6 -157 0
1 4 8 0
-1 -4 -8 0
2 4 38 0
-2 -4 -38 0
3 4 68 0
-3 -4 -68 0
4 98 0
-4 -98 0
4 5 128 0
-4 -5 -128 0
4 6 158 0
-4 -6 -158 0
1 5 9 0
-1 -5 -9 0
2 5 39 0
-2 -5 -39 0
3 5 69 0
-3 -5 -69 0
4 5 99 0
-4 -5 -99 0
5 129 0
-5 -129 0
5 6 159 0
-5 -6 -159 0
1 6 10 0
-1 -6 -10 0
2 6 40 0
-2 -6 -40 0
3 6 70 0
-3 -6 -70 0
4 6 100 0
-4 -6 -100 0
5 6 130 0
-5 -6 -130 0
1 7 11 0
-1 -7 -11 0
2 7 41 0
-2 -7 -41 0
3 7 71 0
-3 -7 -71 0
4 7 101 0
-4 -7 -101 0
5 7 131 0
-5 -7 -131 0
1 8 12 0
-1 -8 -12 0
2 8 42 0
-2 -8 -42 0
3 8 72 0
-3 -8 -72 0
4 8 102 0
-4 -8 -102 0
5 8 132 0
-5 -8 -132 0
1 9 13 0
-1 -9 -13 0
2 9 43 0
-2 -9 -43 0
3 9 73 0
-3 -9 -73 0
4 9 103 0
-4 -9 -103 0
5 9 133 0
-5 -9 -133 0
1 10 14 0
-1 -10 -14 0
2 10 44 0
-2 -10 -44 0
3 10 74 0
-3 -10 -74 0
4 10 104 0
-4 -10 -104 0
5 10 134 0
-5 -10 -134 0
1 11 15 0
-1 -11 -15 0
2 11 45 0
-2 -11 -45 0
3 11 75 0
-3 -11 -75 0
4 11 105 0
-4 -11 -105 0
5 11 135 0
-5 -11 -135 0
1 12 16 0
-1 -12 -16 0
2 12 46 0
-2 -12 -46 0
3 12 76 0
-3 -12 -76 0
4 12 106 0
-4 -12 -106 0
5 12 136 0
-5 -12 -136 0
1 13 17 0
-1 -13 -17 0
2 13 47 0
-2 -13 -47 0
3 13 77 0
-3 -13 -77 0
4 13 107 0
-4 -13 -107 0
5 13 137 0
-5 -13 -137 0
1 14 18 0
-1 -14 -18 0
2 14 48 0
-2 -14 -48 0
3 14 78 0
-3 -14 -78 0
4 14 108 0
-4 -14 -108 0
5 14 138 0
-5 -14 -138 0
1 15 19 0
-1 -15 -19 0
2 15 49 0
-2 -15 -49 0
3 15 79 0
-3 -15 -79 0
4 15 109 0
-4 -15 -109 0
5 15 139 0
-5 -15 -139 0
1 16 20 0
-1 -16 -20 0
2 16 50 0
-2 -16 -50 0
3 16 80 0
-3 -16 -80 0
4 16 110 0
-4 -16 -110 0
5 16 140 0
-5 -16 -140 0
1 17 21 0
-1 -17 -21 0
2 17 51 0
-2 -17 -51 0
3 17 81 0
-3 -17 -81 0
4 17 111 0
-4 -17 -111 0
5 17 141 0
-5 -17 -141 0
1 18 22 0
-1 -18 -22 0
2 18 52 0
-2 -18 -52 0
3 18 82 0
-3 -18 -82 0
4 18 112 0
-4 -18 -112 0
5 18 142 0
-5 -18 -142 0
1 19 23 0
-1 -19 -23 0
2 19 53 0
-2 -19 -53 0
3 19 83 0
-3 -19 -83 0
4 19 113 0
-4 -19 -113 0
5 19 143 0
-5 -19 -143 0
1 20 24 0
-1 -20 -24 0
2 20 54 0
-2 -20 -54 0
3 20 84 0
-3 -20 -84 0
4 20 114 0
-4 -20 -114 0
5 20 144 0
-5 -20 -144 0
1 21 25 0
-1 -21 -25 0
2 21 55 0
-2 -21 -55 0
3 21 85 0
-3 -21 -85 0
4 21 115 0
-4 -21 -115 0
5 21 145 0
-5 -21 -145 0
1 22 26 0
-1 -22 -26 0
2 22 56 0
-2 -22 -56 0
3 22 86 0
-3 -22 -86 0
4 22 116 0
-4 -22 -116 0
5 22 146 0
-5 -22 -146 0
1 23 27 0
-1 -23 -27 0
2 23 57 0
-2 -23 -57 0
3 23 87 0
-3 -23 -87 0
4 23 117 0
-4 -23 -117 0
5 23 147 0
-5 -23 -147 0
1 24 28 0
-1 -24 -28 0
2 24 58 0
-2 -24 -58 0
3 24 88 0
-3 -24 -88 0
4 24 118 0
-4 -24 -118 0
5 24 148 0
-5 -24 -148 0
1 25 29 0
-1 -25 -29 0
2 25 59 0
-2 -25 -59 0
3 25 89 0
-3 -25 -89 0
4 25 119 0
-4 -25 -119 0
5 25 149 0
-5 -25 -149 0
1 26 30 0
-1 -26 -30 0
2 26 60 0
-2 -26 -60 0
3 26 90 0
-3 -26 -90 0
4 26 120 0
-4 -26 -120 0
5 26 150 0
-5 -26 -150 0
1 27 31 0
-1 -27 -31 0
2 27 61 0
-2 -27 -61 0
3 27 91 0
-3 -27 -91 0
4 27 121 0
-4 -27 -121 0
5 27 151 0
-5 -27 -151 0
1 28 32 0
-1 -28 -32 0
2 28 62 0
-2 -28 -62 0
3 28 92 0
-3 -28 -92 0
4 28 122 0
-4 -28 -122 0
5 28 152 0
-5 -28 -152 0
1 29 33 0
-1 -29 -33 0
2 29 63 0
-2 -29 -63 0
3 29 93 0
-3 -29 -93 0
4 29 123 0
-4 -29 -123 0
5 29 153 0
-5 -29 -153 0
1 30 34 0
-1 -30 -34 0
2 30 64 0
-2 -30 -64 0
3 30 94 0
-3 -30 -94 0
4 30 124 0
-4 -30 -124 0
5 30 154 0
-5 -30 -154 0
1 31 35 0
-1 -31 -35 0
2 31 65 0
-2 -31 -65 0
3 31 95 0
-3 -31 -95 0
4 31 125 0
-4 -31 -125 0
5 31 155 0
-5 -31 -155 0
1 32 36 0
-1 -32 -36 0
2 32 66 0
-2 -32 -66 0
3 32 96 0
-3 -32 -96 0
4 32 126 0
-4 -32 -126 0
5 32 156 0
-5 -32 -156 0
1 33 37 0
-1 -33 -37 0
2 33 67 0
-2 -33 -67 0
3 33 97 0
-3 -33 -97 0
4 33 127 0
-4 -33 -127 0
5 33 157 0
-5 -33 -157 0
1 34 38 0
-1 -34 -38 0
2 34 68 0
-2 -34 -68 0
3 34 98 0
-3 -34 -98 0
4 34 128 0
-4 -34 -128 0
5 34 158 0
-5 -34 -158 0
1 35 39 0
-1 -35 -39 0
2 35 69 0
-2 -35 -69 0
3 35 99 0
-3 -35 -99 0
4 35 129 0
-4 -35 -129 0
5 35 159 0
-5 -35 -159 0
1 36 40 0
-1 -36 -40 0
2 36 70 0
-2 -36 -70 0
3 36 100 0
-3 -36 -100 0
4 36 130 0
-4 -36 -130 0
1 37 41 0
-1 -37 -41 0
2 37 71 0
-2 -37 -71 0
3 37 101 0
-3 -37 -101 0
4 37 131 0
-4 -37 -131 0
1 38 42 0
-1 -38 -42 0
2 38 72 0
-2 -38 -72 0
3 38 102 0
-3 -38 -102 0
4 38 132 0
-4 -38 -132 0
1 39 43 0
-1 -39 -43 0
2 39 73 0
-2 -39 -73 0
3 39 103 0
-3 -39 -103 0
4 39 133 0
-4 -39 -133 0
1 40 44 0
-1 -40 -44 0
2 40 74 0
-2 -40 -74 0
3 40 104 0
-3 -40 -104 0
4 40 134 0
-4 -40 -134 0
1 41 45 0
-1 -41 -45 0
2 41 75 0
-2 -41 -75 0
3 41 105 0
-3 -41 -105 0
4 41 135 0
-4 -41 -135 0
1 42 46 0
-1 -42 -46 0
2 42 76 0
-2 -42 -76 0
3 42 106 0
-3 -42 -106 0
4 42 136 0
-4 -42 -136 0
1 43 47 0
-1 -43 -47 0
2 43 77 0
-2 -43 -77 0
3 43 107 0
-3 -43 -107 0
4 43 137 0
-4 -43 -137 0
1 44 48 0
-1 -44 -48 0
2 44 78 0
-2 -44 -78 0
3 44 108 0
-3 -44 -108 0
4 44 138 0
-4 -44 -138 0
1 45 49 0
-1 -45 -49 0
2 45 79 0
-2 -45 -79 0
3 45 109 0
-3 -45 -109 0
4 45 139 0
-4 -45 -139 0
1 46 50 0
-1 -46 -50 0
2 46 80 0
-2 -46 -80 0
3 46 110 0
-3 -46 -110 0
4 46 140 0
-4 -46 -140 0
1 47 51 0
-1 -47 -51 0
2 47 81 0
-2 -47 -81 0
3 47 111 0
-3 -47 -111 0
4 47 141 0
-4 -47 -141 0
1 48 52 0
-1 -48 -52 0
2 48 82 0
-2 -48 -82 0
3 48 112 0
-3 -48 -112 0
4 48 142 0
-4 -48 -142 0
1 49 53 0
-1 -49 -53 0
2 49 83 0
-2 -49 -83 0
3 49 113 0
-3 -49 -113 0
4 49 143 0
-4 -49 -143 0
1 50 54 0
-1 -50 -54 0
2 50 84 0
-2 -50 -84 0
3 50 114 0
-3 -50 -114 0
4 50 144 0
-4 -50 -144 0
1 51 55 0
-1 -51 -55 0
2 51 85 0
-2 -51 -85 0
3 51 115 0
-3 -51 -115 0
4 51 145 0
-4 -51 -145 0
1 52 56 0
-1 -52 -56 0
2 52 86 0
-2 -52 -86 0
3 52 116 0
-3 -52 -116 0
4 52 146 0
-4 -52 -146 0
1 53 57 0
-1 -53 -57 0
2 53 87 0
-2 -53 -87 0
3 53 117 0
-3 -53 -117 0
4 53 147 0
-4 -53 -147 0
1 54 58 0
-1 -54 -58 0
2 54 88 0
-2 -54 -88 0
3 54 118 0
-3 -54 -118 0
4 54 148 0
-4 -54 -148 0
1 55 59 0
-1 -55 -59 0
2 55 89 0
-2 -55 -89 0
3 55 119 0
-3 -55 -119 0
4 55 149 0
-4 -55 -149 0
1 56 60 0
-1 -56 -60 0
2 56 90 0
-2 -56 -90 0
3 56 120 0
-3 -56 -120 0
4 56 150 0
-4 -56 -150 0
1 57 61 0
-1 -57 -61 0
2 57 91 0
-2 -57 -91 0
3 57 121 0
-3 -57 -121 0
4 57 151 0
-4 -57 -151 0
1 58 62 0
-1 -58 -62 0
2 58 92 0
-2 -58 -92 0
3 58 122 0
-3 -58 -122 0
4 58 152 0
-4 -58 -152 0
1 59 63 0
-1 -59 -63 0
2 59 93 0
-2 -59 -93 0
3 59 123 0
-3 -59 -123 0
4 59 153 0
-4 -59 -153 0
1 60 64 0
-1 -60 -64 0
2 60 94 0
-2 -60 -94 0
3 60 124 0
-3 -60 -124 0
4 60 154 0
-4 -60 -154 0
1 61 65 0
-1 -61 -65 0
2 61 95 0
-2 -61 -95 0
3 61 125 0
-3 -61 -125 0
4 61 155 0
-4 -61 -155 0
1 62 66 0
-1 -62 -66 0
2 62 96 0
-2 -62 -96 0
3 62 126 0
-3 -62 -126 0
4 62 156 0
-4 -62 -156 0
1 63 67 0
-1 -63 -67 0
2 63 97 0
-2 -63 -97 0
3 63 127 0
-3 -63 -127 0
4 63 157 0
-4 -63 -157 0
1 64 68 0
-1 -64 -68 0
2 64 98 0
-2 -64 -98 0
3 64 128 0
-3 -64 -128 0
4 64 158 0
-4 -64 -158 0
1 65 69 0
-1 -65 -69 0
2 65 99 0
-2 -65 -99 0
3 65 129 0
-3 -65 -129 0
4 65 159 0
-4 -65 -159 0
1 66 70 0
-1 -66 -70 0
2 66 100 0
-2 -66 -100 0
3 66 130 0
-3 -66 -130 0
1 67 71 0
-1 -67 -71 0
2 67 101 0
-2 -67 -101 0
3 67 131 0
-3 -67 -131 0
1 68 72 0
-1 -68 -72 0
2 68 102 0
-2 -68 -102 0
3 68 132 0
-3 -68 -132 0
1 69 73 0
-1 -69 -73 0
2 69 103 0
-2 -69 -103 0
3 69 133 0
-3 -69 -133 0
1 70 74 0
-1 -70 -74 0
2 70 104 0
-2 -70 -104 0
3 70 134 0
-3 -70 -134 0
1 71 75 0
-1 -71 -75 0
2 71 105 0
-2 -71 -105 0
3 71 135 0
-3 -71 -135 0
1 72 76 0
-1 -72 -76 0
2 72 106 0
-2 -72 -106 0
3 72 136 0
-3 -72 -136 0
1 73 77 0
-1 -73 -77 0
2 73 107 0
-2 -73 -107 0
3 73 137 0
-3 -73 -137 0
1 74 78 0
-1 -74 -78 0
2 74 108 0
-2 -74 -108 0
3 74 138 0
-3 -74 -138 0
1 75 79 0
-1 -75 -79 0
2 75 109 0
-2 -75 -109 0
3 75 139 0
-3 -75 -139 0
1 76 80 0
-1 -76 -80 0
2 76 110 0
-2 -76 -110 0
3 76 140 0
-3 -76 -140 0
1 77 81 0
-1 -77 -81 0
2 77 111 0
-2 -77 -111 0
3 77 141 0
-3 -77 -141 0
1 78 82 0
-1 -78 -82 0
2 78 112 0
-2 -78 -112 0
3 78 142 0
-3 -78 -142 0
1 79 83 0
-1 -79 -83 0
2 79 113 0
-2 -79 -113 0
3 79 143 0
-3 -79 -143 0
1 80 84 0
-1 -80 -84 0
2 80 114 0
-2 -80 -114 0
3 80 144 0
-3 -80 -144 0
1 81 85 0
-1 -81 -85 0
2 81 115 0
-2 -81 -115 0
3 81 145 0
-3 -81 -145 0
1 82 86 0
-1 -82 -86 0
2 82 116 0
-2 -82 -116 0
3 82 146 0
-3 -82 -146 0
1 83 87 0
-1 -83 -87 0
2 83 117 0
-2 -83 -117 0
3 83 147 0
-3 -83 -147 0
1 84 88 0
-1 -84 -88 0
2 84 118 0
-2 -84 -118 0
3 84 148 0
-3 -84 -148 0
1 85 89 0
-1 -85 -89 0
2 85 119 0
-2 -85 -119 0
3 85 149 0
-3 -85 -149 0
1 86 90 0
-1 -86 -90 0
2 86 120 0
-2 -86 -120 0
3 86 150 0
-3 -86 -150 0
1 87 91 0
-1 -87 -91 0
2 87 121 0
-2 -87 -121 0
3 87 151 0
-3 -87 -151 0
1 88 92 0
-1 -88 -92 0
2 88 122 0
-2 -88 -122 0
3 88 152 0
-3 -88 -152 0
1 89 93 0
-1 -89 -93 0
2 89 123 0
-2 -89 -123 0
3 89 153 0
-3 -89 -153 0
1 90 94 0
-1 -90 -94 0
2 90 124 0
-2 -90 -124 0
3 90 154 0
-3 -90 -154 0
1 91 95 0
-1 -91 -95 0
2 91 125 0
-2 -91 -125 0
3 91 155 0
-3 -91 -155 0
1 92 96 0
-1 -92 -96 0
2 92 126 0
-2 -92 -126 0
3 92 156 0
-3 -92 -156 0
1 93 97 0
-1 -93 -97 0
2 93 127 0
-2 -93 -127 0
3 93 157 0
-3 -93 -157 0
1 94 98 0
-1 -94 -98 0
2 94 128 0
-2 -94 -128 0
3 94 158 0
-3 -94 -158 0
1 95 99 0
-1 -95 -99 0
2 95 129 0
-2 -95 -129 0
3 95 159 0
-3 -95 -159 0
1 96 100 0
-1 -96 -100 0
2 96 130 0
-2 -96 -130 0
1 97 101 0
-1 -97 -101 0
2 97 131 0
-2 -97 -131 0
1 98 102 0
-1 -98 -102 0
2 98 132 0
-2 -98 -132 0
1 99 103 0
-1 -99 -103 0
2 99 133 0
-2 -99 -133 0
1 100 104 0
-1 -100 -104 0
2 100 134 0
-2 -100 -134 0
1 101 105 0
-1 -101 -105 0
2 101 135 0
-2 -101 -135 0
1 102 106 0
-1 -102 -106 0
2 102 136 0
-2 -102 -136 0
1 103 107 0
-1 -103 -107 0
2 103 137 0
-2 -103 -137 0
1 104 108 0
-1 -104 -108 0
2 104 138 0
-2 -104 -138 0
1 105 109 0
-1 -105 -109 0
2 105 139 0
-2 -105 -139 0
1 106 110 0
-1 -106 -110 0
2 106 140 0
-2 -106 -140 0
1 107 111 0
-1 -107 -111 0
2 107 141 0
-2 -107 -141 0
1 108 112 0
-1 -108 -112 0
2 108 142 0
-2 -108 -142 0
1 109 113 0
-1 -109 -113 0
2 109 143 0
-2 -109 -143 0
1 110 114 0
-1 -110 -114 0
2 110 144 0
-2 -110 -144 0
1 111 115 0
-1 -111 -115 0
2 111 145 0
-2 -111 -145 0
1 112 116 0
-1 -112 -116 0
2 112 146 0
-2 -112 -146 0
1 113 117 0
-1 -113 -117 0
2 113 147 0
-2 -113 -147 0
1 114 118 0
-1 -114 -118 0
2 114 148 0
-2 -114 -148 0
1 115 119 0
-1 -115 -119 0
2 115 149 0
-2 -115 -149 0
1 116 120 0
-1 -116 -120 0
2 116 150 0
-2 -116 -150 0
1 117 121 0
-1 -117 -121 0
2 117 151 0
-2 -117 -151 0
1 118 122 0
-1 -118 -122 0
2 118 152 0
-2 -118 -152 0
1 119 123 0
-1 -119 -123 0
2 119 153 0
-2 -119 -153 0
1 120 124 0
-1 -120 -124 0
2 120 154 0
-2 -120 -154 0
1 121 125 0
-1 -121 -125 0
2 121 155 0
-2 -121 -155 0
1 122 126 0
-1 -122 -126 0
2 122 156 0
-2 -122 -156 0
1 123 127 0
-1 -123 -127 0
2 123 157 0
-2 -123 -157 0
1 124 128 0
-1 -124 -128 0
2 124 158 0
-2 -124 -158 0
1 125 129 0
-1 -125 -129 0
2 125 159 0
-2 -125 -159 0
1 126 130 0
-1 -126 -130 0
1 127 131 0
-1 -127 -131 0
1 128 132 0
-1 -128 -132 0
1 129 133 0
-1 -129 -133 0
1 130 134 0
-1 -130 -134 0
1 131 135 0
-1 -131 -135 0
1 132 136 0
-1 -132 -136 0
1 133 137 0
-1 -133 -137 0
1 134 138 0
-1 -134 -138 0
1 135 139 0
-1 -135 -139 0
1 136 140 0
-1 -136 -140 0
1 137 141 0
-1 -137 -141 0
1 138 142 0
-1 -138 -142 0
1 139 143 0
-1 -139 -143 0
1 140 144 0
-1 -140 -144 0
1 141 145 0
-1 -141 -145 0
1 142 146 0
-1 -142 -146 0
1 143 147 0
-1 -143 -147 0
1 144 148 0
-1 -144 -148 0
1 145 149 0
-1 -145 -149 0
1 146 150 0
-1 -146 -150 0
1 147 151 0
-1 -147 -151 0
1 148 152 0
-1 -148 -152 0
1 149 153 0
-1 -149 -153 0
1 150 154 0
-1 -150 -154 0
1 151 155 0
-1 -151 -155 0
1 152 156 0
-1 -152 -156 0
1 153 157 0
-1 -153 -157 0
1 154 158 0
-1 -154 -158 0
1 155 159 0
-1 -155 -159 0
