certificates/rado_a30_c26_N159.drat
-155 -159 0
d -155 -1 -159 0
31 35 155 0
-5 -159 0
-159 0
155 0
5 0
-1 0
-129 0
-31 0
133 0
125 0
35 0
27 0
-9 0
-151 0
13 0
147 0
-137 0
-23 0
141 0
19 0
-17 0
-143 0
21 0
139 0
-145 0
-15 0
149 0
11 0
-25 0
-135 0
29 0
131 0
-153 0
-7 0
157 0
3 0
-33 0
-67 0
-127 0
-6 0
-69 0
-77 0
-85 0
-93 0
-99 0
-61 0
-91 0
-83 0
-75 0
37 0
71 0
63 0
2 0
123 0
4 0
10 0
73 0
65 0
81 0
89 0
97 0
103 0
95 0
57 0
87 0
79 0
0
